\ Model ajuste
\ LP format - for model browsing. Use MPS format to capture full model detail.
Minimize
  - 1.6096975833759564e+08 coef_ajuste + 7.8831993720532775e+07 Constant + [
   1.643448419630357e+08 coef_ajuste ^2 ] / 2 
Subject To
Bounds
 coef_ajuste <= 1
 Constant = 1
End
